p cnf 7230 16
-1072 -1980 -2352 0
-1070 -1978 -2350 0
1072 -2353 0
1070 -2351 0
2356 2357 0
1760 -2357 0
-1760 -2356 0
2354 2355 0
1758 -2355 0
-1758 -2354 0
2352 2353 0
2350 2351 0
1980 -2353 0
1978 -2351 0
-1762 2359 0
1762 -2359 0
